# Solution for model Super-Permutation_3
# Objective value = 13
x[1] 2
f[1] 1
x[2] 1
f[2] 1
x[3] 3
f[3] 1
x[4] 0
f[4] 0
x[5] 0
f[5] 0
x[6] 0
f[6] 0
x[7] 1
f[7] 1
x[8] 3
f[8] 1
x[9] 2
f[9] 1
x[10] 3
f[10] 1
x[11] 1
f[11] 1
x[12] 2
f[12] 1
x[13] 3
f[13] 1
x[14] 0
f[14] 0
x[15] 0
f[15] 0
x[16] 3
f[16] 1
x[17] 2
f[17] 1
x[18] 1
f[18] 1
y[(1,_2,_3),1,1] 1
g[(1,_2,_3),1,1] 1
h[(1,_2,_3),1,1] 1
y[(1,_2,_3),1,2] -1
g[(1,_2,_3),1,2] 1
h[(1,_2,_3),1,2] 0
y[(1,_2,_3),1,3] 0
g[(1,_2,_3),1,3] 0
h[(1,_2,_3),1,3] 0
z[(1,_2,_3),1] 0
y[(1,_3,_2),1,1] 1
g[(1,_3,_2),1,1] 1
h[(1,_3,_2),1,1] 1
y[(1,_3,_2),1,2] -2
g[(1,_3,_2),1,2] 1
h[(1,_3,_2),1,2] 0
y[(1,_3,_2),1,3] 1
g[(1,_3,_2),1,3] 1
h[(1,_3,_2),1,3] 1
z[(1,_3,_2),1] 0
y[(2,_1,_3),1,1] 0
g[(2,_1,_3),1,1] 0
h[(2,_1,_3),1,1] 0
y[(2,_1,_3),1,2] 0
g[(2,_1,_3),1,2] 0
h[(2,_1,_3),1,2] 0
y[(2,_1,_3),1,3] 0
g[(2,_1,_3),1,3] 0
h[(2,_1,_3),1,3] 0
z[(2,_1,_3),1] 1
y[(2,_3,_1),1,1] 0
g[(2,_3,_1),1,1] 0
h[(2,_3,_1),1,1] 0
y[(2,_3,_1),1,2] -2
g[(2,_3,_1),1,2] 1
h[(2,_3,_1),1,2] 0
y[(2,_3,_1),1,3] 2
g[(2,_3,_1),1,3] 1
h[(2,_3,_1),1,3] 1
z[(2,_3,_1),1] 0
y[(3,_1,_2),1,1] -1
g[(3,_1,_2),1,1] 1
h[(3,_1,_2),1,1] 0
y[(3,_1,_2),1,2] 0
g[(3,_1,_2),1,2] 0
h[(3,_1,_2),1,2] 0
y[(3,_1,_2),1,3] 1
g[(3,_1,_2),1,3] 1
h[(3,_1,_2),1,3] 1
z[(3,_1,_2),1] 0
y[(3,_2,_1),1,1] -1
g[(3,_2,_1),1,1] 1
h[(3,_2,_1),1,1] 0
y[(3,_2,_1),1,2] -1
g[(3,_2,_1),1,2] 1
h[(3,_2,_1),1,2] 0
y[(3,_2,_1),1,3] 2
g[(3,_2,_1),1,3] 1
h[(3,_2,_1),1,3] 1
z[(3,_2,_1),1] 0
y[(1,_2,_3),2,1] 0
g[(1,_2,_3),2,1] 0
h[(1,_2,_3),2,1] 0
y[(1,_2,_3),2,2] 1
g[(1,_2,_3),2,2] 1
h[(1,_2,_3),2,2] 1
y[(1,_2,_3),2,3] -3
g[(1,_2,_3),2,3] 1
h[(1,_2,_3),2,3] 0
z[(1,_2,_3),2] 0
y[(1,_3,_2),2,1] 0
g[(1,_3,_2),2,1] 0
h[(1,_3,_2),2,1] 0
y[(1,_3,_2),2,2] 0
g[(1,_3,_2),2,2] 0
h[(1,_3,_2),2,2] 0
y[(1,_3,_2),2,3] -2
g[(1,_3,_2),2,3] 1
h[(1,_3,_2),2,3] 0
z[(1,_3,_2),2] 0
y[(2,_1,_3),2,1] -1
g[(2,_1,_3),2,1] 1
h[(2,_1,_3),2,1] 0
y[(2,_1,_3),2,2] 2
g[(2,_1,_3),2,2] 1
h[(2,_1,_3),2,2] 1
y[(2,_1,_3),2,3] -3
g[(2,_1,_3),2,3] 1
h[(2,_1,_3),2,3] 0
z[(2,_1,_3),2] 0
y[(2,_3,_1),2,1] -1
g[(2,_3,_1),2,1] 1
h[(2,_3,_1),2,1] 0
y[(2,_3,_1),2,2] 0
g[(2,_3,_1),2,2] 0
h[(2,_3,_1),2,2] 0
y[(2,_3,_1),2,3] -1
g[(2,_3,_1),2,3] 1
h[(2,_3,_1),2,3] 0
z[(2,_3,_1),2] 0
y[(3,_1,_2),2,1] -2
g[(3,_1,_2),2,1] 1
h[(3,_1,_2),2,1] 0
y[(3,_1,_2),2,2] 2
g[(3,_1,_2),2,2] 1
h[(3,_1,_2),2,2] 1
y[(3,_1,_2),2,3] -2
g[(3,_1,_2),2,3] 1
h[(3,_1,_2),2,3] 0
z[(3,_1,_2),2] 0
y[(3,_2,_1),2,1] -2
g[(3,_2,_1),2,1] 1
h[(3,_2,_1),2,1] 0
y[(3,_2,_1),2,2] 1
g[(3,_2,_1),2,2] 1
h[(3,_2,_1),2,2] 1
y[(3,_2,_1),2,3] -1
g[(3,_2,_1),2,3] 1
h[(3,_2,_1),2,3] 0
z[(3,_2,_1),2] 0
y[(1,_2,_3),3,1] 2
g[(1,_2,_3),3,1] 1
h[(1,_2,_3),3,1] 1
y[(1,_2,_3),3,2] -2
g[(1,_2,_3),3,2] 1
h[(1,_2,_3),3,2] 0
y[(1,_2,_3),3,3] -3
g[(1,_2,_3),3,3] 1
h[(1,_2,_3),3,3] 0
z[(1,_2,_3),3] 0
y[(1,_3,_2),3,1] 2
g[(1,_3,_2),3,1] 1
h[(1,_3,_2),3,1] 1
y[(1,_3,_2),3,2] -3
g[(1,_3,_2),3,2] 1
h[(1,_3,_2),3,2] 0
y[(1,_3,_2),3,3] -2
g[(1,_3,_2),3,3] 1
h[(1,_3,_2),3,3] 0
z[(1,_3,_2),3] 0
y[(2,_1,_3),3,1] 1
g[(2,_1,_3),3,1] 1
h[(2,_1,_3),3,1] 1
y[(2,_1,_3),3,2] -1
g[(2,_1,_3),3,2] 1
h[(2,_1,_3),3,2] 0
y[(2,_1,_3),3,3] -3
g[(2,_1,_3),3,3] 1
h[(2,_1,_3),3,3] 0
z[(2,_1,_3),3] 0
y[(2,_3,_1),3,1] 1
g[(2,_3,_1),3,1] 1
h[(2,_3,_1),3,1] 1
y[(2,_3,_1),3,2] -3
g[(2,_3,_1),3,2] 1
h[(2,_3,_1),3,2] 0
y[(2,_3,_1),3,3] -1
g[(2,_3,_1),3,3] 1
h[(2,_3,_1),3,3] 0
z[(2,_3,_1),3] 0
y[(3,_1,_2),3,1] 0
g[(3,_1,_2),3,1] 0
h[(3,_1,_2),3,1] 0
y[(3,_1,_2),3,2] -1
g[(3,_1,_2),3,2] 1
h[(3,_1,_2),3,2] 0
y[(3,_1,_2),3,3] -2
g[(3,_1,_2),3,3] 1
h[(3,_1,_2),3,3] 0
z[(3,_1,_2),3] 0
y[(3,_2,_1),3,1] 0
g[(3,_2,_1),3,1] 0
h[(3,_2,_1),3,1] 0
y[(3,_2,_1),3,2] -2
g[(3,_2,_1),3,2] 1
h[(3,_2,_1),3,2] 0
y[(3,_2,_1),3,3] -1
g[(3,_2,_1),3,3] 1
h[(3,_2,_1),3,3] 0
z[(3,_2,_1),3] 0
y[(1,_2,_3),4,1] -1
g[(1,_2,_3),4,1] 1
h[(1,_2,_3),4,1] 0
y[(1,_2,_3),4,2] -2
g[(1,_2,_3),4,2] 1
h[(1,_2,_3),4,2] 0
y[(1,_2,_3),4,3] -3
g[(1,_2,_3),4,3] 1
h[(1,_2,_3),4,3] 0
z[(1,_2,_3),4] 0
y[(1,_3,_2),4,1] -1
g[(1,_3,_2),4,1] 1
h[(1,_3,_2),4,1] 0
y[(1,_3,_2),4,2] -3
g[(1,_3,_2),4,2] 1
h[(1,_3,_2),4,2] 0
y[(1,_3,_2),4,3] -2
g[(1,_3,_2),4,3] 1
h[(1,_3,_2),4,3] 0
z[(1,_3,_2),4] 0
y[(2,_1,_3),4,1] -2
g[(2,_1,_3),4,1] 1
h[(2,_1,_3),4,1] 0
y[(2,_1,_3),4,2] -1
g[(2,_1,_3),4,2] 1
h[(2,_1,_3),4,2] 0
y[(2,_1,_3),4,3] -3
g[(2,_1,_3),4,3] 1
h[(2,_1,_3),4,3] 0
z[(2,_1,_3),4] 0
y[(2,_3,_1),4,1] -2
g[(2,_3,_1),4,1] 1
h[(2,_3,_1),4,1] 0
y[(2,_3,_1),4,2] -3
g[(2,_3,_1),4,2] 1
h[(2,_3,_1),4,2] 0
y[(2,_3,_1),4,3] -1
g[(2,_3,_1),4,3] 1
h[(2,_3,_1),4,3] 0
z[(2,_3,_1),4] 0
y[(3,_1,_2),4,1] -3
g[(3,_1,_2),4,1] 1
h[(3,_1,_2),4,1] 0
y[(3,_1,_2),4,2] -1
g[(3,_1,_2),4,2] 1
h[(3,_1,_2),4,2] 0
y[(3,_1,_2),4,3] -2
g[(3,_1,_2),4,3] 1
h[(3,_1,_2),4,3] 0
z[(3,_1,_2),4] 0
y[(3,_2,_1),4,1] -3
g[(3,_2,_1),4,1] 1
h[(3,_2,_1),4,1] 0
y[(3,_2,_1),4,2] -2
g[(3,_2,_1),4,2] 1
h[(3,_2,_1),4,2] 0
y[(3,_2,_1),4,3] -1
g[(3,_2,_1),4,3] 1
h[(3,_2,_1),4,3] 0
z[(3,_2,_1),4] 0
y[(1,_2,_3),5,1] -1
g[(1,_2,_3),5,1] 1
h[(1,_2,_3),5,1] 0
y[(1,_2,_3),5,2] -2
g[(1,_2,_3),5,2] 1
h[(1,_2,_3),5,2] 0
y[(1,_2,_3),5,3] -2
g[(1,_2,_3),5,3] 1
h[(1,_2,_3),5,3] 0
z[(1,_2,_3),5] 0
y[(1,_3,_2),5,1] -1
g[(1,_3,_2),5,1] 1
h[(1,_3,_2),5,1] 0
y[(1,_3,_2),5,2] -3
g[(1,_3,_2),5,2] 1
h[(1,_3,_2),5,2] 0
y[(1,_3,_2),5,3] -1
g[(1,_3,_2),5,3] 1
h[(1,_3,_2),5,3] 0
z[(1,_3,_2),5] 0
y[(2,_1,_3),5,1] -2
g[(2,_1,_3),5,1] 1
h[(2,_1,_3),5,1] 0
y[(2,_1,_3),5,2] -1
g[(2,_1,_3),5,2] 1
h[(2,_1,_3),5,2] 0
y[(2,_1,_3),5,3] -2
g[(2,_1,_3),5,3] 1
h[(2,_1,_3),5,3] 0
z[(2,_1,_3),5] 0
y[(2,_3,_1),5,1] -2
g[(2,_3,_1),5,1] 1
h[(2,_3,_1),5,1] 0
y[(2,_3,_1),5,2] -3
g[(2,_3,_1),5,2] 1
h[(2,_3,_1),5,2] 0
y[(2,_3,_1),5,3] 0
g[(2,_3,_1),5,3] 0
h[(2,_3,_1),5,3] 0
z[(2,_3,_1),5] 0
y[(3,_1,_2),5,1] -3
g[(3,_1,_2),5,1] 1
h[(3,_1,_2),5,1] 0
y[(3,_1,_2),5,2] -1
g[(3,_1,_2),5,2] 1
h[(3,_1,_2),5,2] 0
y[(3,_1,_2),5,3] -1
g[(3,_1,_2),5,3] 1
h[(3,_1,_2),5,3] 0
z[(3,_1,_2),5] 0
y[(3,_2,_1),5,1] -3
g[(3,_2,_1),5,1] 1
h[(3,_2,_1),5,1] 0
y[(3,_2,_1),5,2] -2
g[(3,_2,_1),5,2] 1
h[(3,_2,_1),5,2] 0
y[(3,_2,_1),5,3] 0
g[(3,_2,_1),5,3] 0
h[(3,_2,_1),5,3] 0
z[(3,_2,_1),5] 0
y[(1,_2,_3),6,1] -1
g[(1,_2,_3),6,1] 1
h[(1,_2,_3),6,1] 0
y[(1,_2,_3),6,2] -1
g[(1,_2,_3),6,2] 1
h[(1,_2,_3),6,2] 0
y[(1,_2,_3),6,3] 0
g[(1,_2,_3),6,3] 0
h[(1,_2,_3),6,3] 0
z[(1,_2,_3),6] 0
y[(1,_3,_2),6,1] -1
g[(1,_3,_2),6,1] 1
h[(1,_3,_2),6,1] 0
y[(1,_3,_2),6,2] -2
g[(1,_3,_2),6,2] 1
h[(1,_3,_2),6,2] 0
y[(1,_3,_2),6,3] 1
g[(1,_3,_2),6,3] 1
h[(1,_3,_2),6,3] 1
z[(1,_3,_2),6] 0
y[(2,_1,_3),6,1] -2
g[(2,_1,_3),6,1] 1
h[(2,_1,_3),6,1] 0
y[(2,_1,_3),6,2] 0
g[(2,_1,_3),6,2] 0
h[(2,_1,_3),6,2] 0
y[(2,_1,_3),6,3] 0
g[(2,_1,_3),6,3] 0
h[(2,_1,_3),6,3] 0
z[(2,_1,_3),6] 0
y[(2,_3,_1),6,1] -2
g[(2,_3,_1),6,1] 1
h[(2,_3,_1),6,1] 0
y[(2,_3,_1),6,2] -2
g[(2,_3,_1),6,2] 1
h[(2,_3,_1),6,2] 0
y[(2,_3,_1),6,3] 2
g[(2,_3,_1),6,3] 1
h[(2,_3,_1),6,3] 1
z[(2,_3,_1),6] 0
y[(3,_1,_2),6,1] -3
g[(3,_1,_2),6,1] 1
h[(3,_1,_2),6,1] 0
y[(3,_1,_2),6,2] 0
g[(3,_1,_2),6,2] 0
h[(3,_1,_2),6,2] 0
y[(3,_1,_2),6,3] 1
g[(3,_1,_2),6,3] 1
h[(3,_1,_2),6,3] 1
z[(3,_1,_2),6] 0
y[(3,_2,_1),6,1] -3
g[(3,_2,_1),6,1] 1
h[(3,_2,_1),6,1] 0
y[(3,_2,_1),6,2] -1
g[(3,_2,_1),6,2] 1
h[(3,_2,_1),6,2] 0
y[(3,_2,_1),6,3] 2
g[(3,_2,_1),6,3] 1
h[(3,_2,_1),6,3] 1
z[(3,_2,_1),6] 0
y[(1,_2,_3),7,1] 0
g[(1,_2,_3),7,1] 0
h[(1,_2,_3),7,1] 0
y[(1,_2,_3),7,2] 1
g[(1,_2,_3),7,2] 1
h[(1,_2,_3),7,2] 1
y[(1,_2,_3),7,3] -1
g[(1,_2,_3),7,3] 1
h[(1,_2,_3),7,3] 0
z[(1,_2,_3),7] 0
y[(1,_3,_2),7,1] 0
g[(1,_3,_2),7,1] 0
h[(1,_3,_2),7,1] 0
y[(1,_3,_2),7,2] 0
g[(1,_3,_2),7,2] 0
h[(1,_3,_2),7,2] 0
y[(1,_3,_2),7,3] 0
g[(1,_3,_2),7,3] 0
h[(1,_3,_2),7,3] 0
z[(1,_3,_2),7] 1
y[(2,_1,_3),7,1] -1
g[(2,_1,_3),7,1] 1
h[(2,_1,_3),7,1] 0
y[(2,_1,_3),7,2] 2
g[(2,_1,_3),7,2] 1
h[(2,_1,_3),7,2] 1
y[(2,_1,_3),7,3] -1
g[(2,_1,_3),7,3] 1
h[(2,_1,_3),7,3] 0
z[(2,_1,_3),7] 0
y[(2,_3,_1),7,1] -1
g[(2,_3,_1),7,1] 1
h[(2,_3,_1),7,1] 0
y[(2,_3,_1),7,2] 0
g[(2,_3,_1),7,2] 0
h[(2,_3,_1),7,2] 0
y[(2,_3,_1),7,3] 1
g[(2,_3,_1),7,3] 1
h[(2,_3,_1),7,3] 1
z[(2,_3,_1),7] 0
y[(3,_1,_2),7,1] -2
g[(3,_1,_2),7,1] 1
h[(3,_1,_2),7,1] 0
y[(3,_1,_2),7,2] 2
g[(3,_1,_2),7,2] 1
h[(3,_1,_2),7,2] 1
y[(3,_1,_2),7,3] 0
g[(3,_1,_2),7,3] 0
h[(3,_1,_2),7,3] 0
z[(3,_1,_2),7] 0
y[(3,_2,_1),7,1] -2
g[(3,_2,_1),7,1] 1
h[(3,_2,_1),7,1] 0
y[(3,_2,_1),7,2] 1
g[(3,_2,_1),7,2] 1
h[(3,_2,_1),7,2] 1
y[(3,_2,_1),7,3] 1
g[(3,_2,_1),7,3] 1
h[(3,_2,_1),7,3] 1
z[(3,_2,_1),7] 0
y[(1,_2,_3),8,1] 2
g[(1,_2,_3),8,1] 1
h[(1,_2,_3),8,1] 1
y[(1,_2,_3),8,2] 0
g[(1,_2,_3),8,2] 0
h[(1,_2,_3),8,2] 0
y[(1,_2,_3),8,3] 0
g[(1,_2,_3),8,3] 0
h[(1,_2,_3),8,3] 0
z[(1,_2,_3),8] 0
y[(1,_3,_2),8,1] 2
g[(1,_3,_2),8,1] 1
h[(1,_3,_2),8,1] 1
y[(1,_3,_2),8,2] -1
g[(1,_3,_2),8,2] 1
h[(1,_3,_2),8,2] 0
y[(1,_3,_2),8,3] 1
g[(1,_3,_2),8,3] 1
h[(1,_3,_2),8,3] 1
z[(1,_3,_2),8] 0
y[(2,_1,_3),8,1] 1
g[(2,_1,_3),8,1] 1
h[(2,_1,_3),8,1] 1
y[(2,_1,_3),8,2] 1
g[(2,_1,_3),8,2] 1
h[(2,_1,_3),8,2] 1
y[(2,_1,_3),8,3] 0
g[(2,_1,_3),8,3] 0
h[(2,_1,_3),8,3] 0
z[(2,_1,_3),8] 0
y[(2,_3,_1),8,1] 1
g[(2,_3,_1),8,1] 1
h[(2,_3,_1),8,1] 1
y[(2,_3,_1),8,2] -1
g[(2,_3,_1),8,2] 1
h[(2,_3,_1),8,2] 0
y[(2,_3,_1),8,3] 2
g[(2,_3,_1),8,3] 1
h[(2,_3,_1),8,3] 1
z[(2,_3,_1),8] 0
y[(3,_1,_2),8,1] 0
g[(3,_1,_2),8,1] 0
h[(3,_1,_2),8,1] 0
y[(3,_1,_2),8,2] 1
g[(3,_1,_2),8,2] 1
h[(3,_1,_2),8,2] 1
y[(3,_1,_2),8,3] 1
g[(3,_1,_2),8,3] 1
h[(3,_1,_2),8,3] 1
z[(3,_1,_2),8] 0
y[(3,_2,_1),8,1] 0
g[(3,_2,_1),8,1] 0
h[(3,_2,_1),8,1] 0
y[(3,_2,_1),8,2] 0
g[(3,_2,_1),8,2] 0
h[(3,_2,_1),8,2] 0
y[(3,_2,_1),8,3] 2
g[(3,_2,_1),8,3] 1
h[(3,_2,_1),8,3] 1
z[(3,_2,_1),8] 0
y[(1,_2,_3),9,1] 1
g[(1,_2,_3),9,1] 1
h[(1,_2,_3),9,1] 1
y[(1,_2,_3),9,2] 1
g[(1,_2,_3),9,2] 1
h[(1,_2,_3),9,2] 1
y[(1,_2,_3),9,3] -2
g[(1,_2,_3),9,3] 1
h[(1,_2,_3),9,3] 0
z[(1,_2,_3),9] 0
y[(1,_3,_2),9,1] 1
g[(1,_3,_2),9,1] 1
h[(1,_3,_2),9,1] 1
y[(1,_3,_2),9,2] 0
g[(1,_3,_2),9,2] 0
h[(1,_3,_2),9,2] 0
y[(1,_3,_2),9,3] -1
g[(1,_3,_2),9,3] 1
h[(1,_3,_2),9,3] 0
z[(1,_3,_2),9] 0
y[(2,_1,_3),9,1] 0
g[(2,_1,_3),9,1] 0
h[(2,_1,_3),9,1] 0
y[(2,_1,_3),9,2] 2
g[(2,_1,_3),9,2] 1
h[(2,_1,_3),9,2] 1
y[(2,_1,_3),9,3] -2
g[(2,_1,_3),9,3] 1
h[(2,_1,_3),9,3] 0
z[(2,_1,_3),9] 0
y[(2,_3,_1),9,1] 0
g[(2,_3,_1),9,1] 0
h[(2,_3,_1),9,1] 0
y[(2,_3,_1),9,2] 0
g[(2,_3,_1),9,2] 0
h[(2,_3,_1),9,2] 0
y[(2,_3,_1),9,3] 0
g[(2,_3,_1),9,3] 0
h[(2,_3,_1),9,3] 0
z[(2,_3,_1),9] 1
y[(3,_1,_2),9,1] -1
g[(3,_1,_2),9,1] 1
h[(3,_1,_2),9,1] 0
y[(3,_1,_2),9,2] 2
g[(3,_1,_2),9,2] 1
h[(3,_1,_2),9,2] 1
y[(3,_1,_2),9,3] -1
g[(3,_1,_2),9,3] 1
h[(3,_1,_2),9,3] 0
z[(3,_1,_2),9] 0
y[(3,_2,_1),9,1] -1
g[(3,_2,_1),9,1] 1
h[(3,_2,_1),9,1] 0
y[(3,_2,_1),9,2] 1
g[(3,_2,_1),9,2] 1
h[(3,_2,_1),9,2] 1
y[(3,_2,_1),9,3] 0
g[(3,_2,_1),9,3] 0
h[(3,_2,_1),9,3] 0
z[(3,_2,_1),9] 0
y[(1,_2,_3),10,1] 2
g[(1,_2,_3),10,1] 1
h[(1,_2,_3),10,1] 1
y[(1,_2,_3),10,2] -1
g[(1,_2,_3),10,2] 1
h[(1,_2,_3),10,2] 0
y[(1,_2,_3),10,3] -1
g[(1,_2,_3),10,3] 1
h[(1,_2,_3),10,3] 0
z[(1,_2,_3),10] 0
y[(1,_3,_2),10,1] 2
g[(1,_3,_2),10,1] 1
h[(1,_3,_2),10,1] 1
y[(1,_3,_2),10,2] -2
g[(1,_3,_2),10,2] 1
h[(1,_3,_2),10,2] 0
y[(1,_3,_2),10,3] 0
g[(1,_3,_2),10,3] 0
h[(1,_3,_2),10,3] 0
z[(1,_3,_2),10] 0
y[(2,_1,_3),10,1] 1
g[(2,_1,_3),10,1] 1
h[(2,_1,_3),10,1] 1
y[(2,_1,_3),10,2] 0
g[(2,_1,_3),10,2] 0
h[(2,_1,_3),10,2] 0
y[(2,_1,_3),10,3] -1
g[(2,_1,_3),10,3] 1
h[(2,_1,_3),10,3] 0
z[(2,_1,_3),10] 0
y[(2,_3,_1),10,1] 1
g[(2,_3,_1),10,1] 1
h[(2,_3,_1),10,1] 1
y[(2,_3,_1),10,2] -2
g[(2,_3,_1),10,2] 1
h[(2,_3,_1),10,2] 0
y[(2,_3,_1),10,3] 1
g[(2,_3,_1),10,3] 1
h[(2,_3,_1),10,3] 1
z[(2,_3,_1),10] 0
y[(3,_1,_2),10,1] 0
g[(3,_1,_2),10,1] 0
h[(3,_1,_2),10,1] 0
y[(3,_1,_2),10,2] 0
g[(3,_1,_2),10,2] 0
h[(3,_1,_2),10,2] 0
y[(3,_1,_2),10,3] 0
g[(3,_1,_2),10,3] 0
h[(3,_1,_2),10,3] 0
z[(3,_1,_2),10] 1
y[(3,_2,_1),10,1] 0
g[(3,_2,_1),10,1] 0
h[(3,_2,_1),10,1] 0
y[(3,_2,_1),10,2] -1
g[(3,_2,_1),10,2] 1
h[(3,_2,_1),10,2] 0
y[(3,_2,_1),10,3] 1
g[(3,_2,_1),10,3] 1
h[(3,_2,_1),10,3] 1
z[(3,_2,_1),10] 0
y[(1,_2,_3),11,1] 0
g[(1,_2,_3),11,1] 0
h[(1,_2,_3),11,1] 0
y[(1,_2,_3),11,2] 0
g[(1,_2,_3),11,2] 0
h[(1,_2,_3),11,2] 0
y[(1,_2,_3),11,3] 0
g[(1,_2,_3),11,3] 0
h[(1,_2,_3),11,3] 0
z[(1,_2,_3),11] 1
y[(1,_3,_2),11,1] 0
g[(1,_3,_2),11,1] 0
h[(1,_3,_2),11,1] 0
y[(1,_3,_2),11,2] -1
g[(1,_3,_2),11,2] 1
h[(1,_3,_2),11,2] 0
y[(1,_3,_2),11,3] 1
g[(1,_3,_2),11,3] 1
h[(1,_3,_2),11,3] 1
z[(1,_3,_2),11] 0
y[(2,_1,_3),11,1] -1
g[(2,_1,_3),11,1] 1
h[(2,_1,_3),11,1] 0
y[(2,_1,_3),11,2] 1
g[(2,_1,_3),11,2] 1
h[(2,_1,_3),11,2] 1
y[(2,_1,_3),11,3] 0
g[(2,_1,_3),11,3] 0
h[(2,_1,_3),11,3] 0
z[(2,_1,_3),11] 0
y[(2,_3,_1),11,1] -1
g[(2,_3,_1),11,1] 1
h[(2,_3,_1),11,1] 0
y[(2,_3,_1),11,2] -1
g[(2,_3,_1),11,2] 1
h[(2,_3,_1),11,2] 0
y[(2,_3,_1),11,3] 2
g[(2,_3,_1),11,3] 1
h[(2,_3,_1),11,3] 1
z[(2,_3,_1),11] 0
y[(3,_1,_2),11,1] -2
g[(3,_1,_2),11,1] 1
h[(3,_1,_2),11,1] 0
y[(3,_1,_2),11,2] 1
g[(3,_1,_2),11,2] 1
h[(3,_1,_2),11,2] 1
y[(3,_1,_2),11,3] 1
g[(3,_1,_2),11,3] 1
h[(3,_1,_2),11,3] 1
z[(3,_1,_2),11] 0
y[(3,_2,_1),11,1] -2
g[(3,_2,_1),11,1] 1
h[(3,_2,_1),11,1] 0
y[(3,_2,_1),11,2] 0
g[(3,_2,_1),11,2] 0
h[(3,_2,_1),11,2] 0
y[(3,_2,_1),11,3] 2
g[(3,_2,_1),11,3] 1
h[(3,_2,_1),11,3] 1
z[(3,_2,_1),11] 0
y[(1,_2,_3),12,1] 1
g[(1,_2,_3),12,1] 1
h[(1,_2,_3),12,1] 1
y[(1,_2,_3),12,2] 1
g[(1,_2,_3),12,2] 1
h[(1,_2,_3),12,2] 1
y[(1,_2,_3),12,3] -3
g[(1,_2,_3),12,3] 1
h[(1,_2,_3),12,3] 0
z[(1,_2,_3),12] 0
y[(1,_3,_2),12,1] 1
g[(1,_3,_2),12,1] 1
h[(1,_3,_2),12,1] 1
y[(1,_3,_2),12,2] 0
g[(1,_3,_2),12,2] 0
h[(1,_3,_2),12,2] 0
y[(1,_3,_2),12,3] -2
g[(1,_3,_2),12,3] 1
h[(1,_3,_2),12,3] 0
z[(1,_3,_2),12] 0
y[(2,_1,_3),12,1] 0
g[(2,_1,_3),12,1] 0
h[(2,_1,_3),12,1] 0
y[(2,_1,_3),12,2] 2
g[(2,_1,_3),12,2] 1
h[(2,_1,_3),12,2] 1
y[(2,_1,_3),12,3] -3
g[(2,_1,_3),12,3] 1
h[(2,_1,_3),12,3] 0
z[(2,_1,_3),12] 0
y[(2,_3,_1),12,1] 0
g[(2,_3,_1),12,1] 0
h[(2,_3,_1),12,1] 0
y[(2,_3,_1),12,2] 0
g[(2,_3,_1),12,2] 0
h[(2,_3,_1),12,2] 0
y[(2,_3,_1),12,3] -1
g[(2,_3,_1),12,3] 1
h[(2,_3,_1),12,3] 0
z[(2,_3,_1),12] 0
y[(3,_1,_2),12,1] -1
g[(3,_1,_2),12,1] 1
h[(3,_1,_2),12,1] 0
y[(3,_1,_2),12,2] 2
g[(3,_1,_2),12,2] 1
h[(3,_1,_2),12,2] 1
y[(3,_1,_2),12,3] -2
g[(3,_1,_2),12,3] 1
h[(3,_1,_2),12,3] 0
z[(3,_1,_2),12] 0
y[(3,_2,_1),12,1] -1
g[(3,_2,_1),12,1] 1
h[(3,_2,_1),12,1] 0
y[(3,_2,_1),12,2] 1
g[(3,_2,_1),12,2] 1
h[(3,_2,_1),12,2] 1
y[(3,_2,_1),12,3] -1
g[(3,_2,_1),12,3] 1
h[(3,_2,_1),12,3] 0
z[(3,_2,_1),12] 0
y[(1,_2,_3),13,1] 2
g[(1,_2,_3),13,1] 1
h[(1,_2,_3),13,1] 1
y[(1,_2,_3),13,2] -2
g[(1,_2,_3),13,2] 1
h[(1,_2,_3),13,2] 0
y[(1,_2,_3),13,3] -3
g[(1,_2,_3),13,3] 1
h[(1,_2,_3),13,3] 0
z[(1,_2,_3),13] 0
y[(1,_3,_2),13,1] 2
g[(1,_3,_2),13,1] 1
h[(1,_3,_2),13,1] 1
y[(1,_3,_2),13,2] -3
g[(1,_3,_2),13,2] 1
h[(1,_3,_2),13,2] 0
y[(1,_3,_2),13,3] -2
g[(1,_3,_2),13,3] 1
h[(1,_3,_2),13,3] 0
z[(1,_3,_2),13] 0
y[(2,_1,_3),13,1] 1
g[(2,_1,_3),13,1] 1
h[(2,_1,_3),13,1] 1
y[(2,_1,_3),13,2] -1
g[(2,_1,_3),13,2] 1
h[(2,_1,_3),13,2] 0
y[(2,_1,_3),13,3] -3
g[(2,_1,_3),13,3] 1
h[(2,_1,_3),13,3] 0
z[(2,_1,_3),13] 0
y[(2,_3,_1),13,1] 1
g[(2,_3,_1),13,1] 1
h[(2,_3,_1),13,1] 1
y[(2,_3,_1),13,2] -3
g[(2,_3,_1),13,2] 1
h[(2,_3,_1),13,2] 0
y[(2,_3,_1),13,3] -1
g[(2,_3,_1),13,3] 1
h[(2,_3,_1),13,3] 0
z[(2,_3,_1),13] 0
y[(3,_1,_2),13,1] 0
g[(3,_1,_2),13,1] 0
h[(3,_1,_2),13,1] 0
y[(3,_1,_2),13,2] -1
g[(3,_1,_2),13,2] 1
h[(3,_1,_2),13,2] 0
y[(3,_1,_2),13,3] -2
g[(3,_1,_2),13,3] 1
h[(3,_1,_2),13,3] 0
z[(3,_1,_2),13] 0
y[(3,_2,_1),13,1] 0
g[(3,_2,_1),13,1] 0
h[(3,_2,_1),13,1] 0
y[(3,_2,_1),13,2] -2
g[(3,_2,_1),13,2] 1
h[(3,_2,_1),13,2] 0
y[(3,_2,_1),13,3] -1
g[(3,_2,_1),13,3] 1
h[(3,_2,_1),13,3] 0
z[(3,_2,_1),13] 0
y[(1,_2,_3),14,1] -1
g[(1,_2,_3),14,1] 1
h[(1,_2,_3),14,1] 0
y[(1,_2,_3),14,2] -2
g[(1,_2,_3),14,2] 1
h[(1,_2,_3),14,2] 0
y[(1,_2,_3),14,3] 0
g[(1,_2,_3),14,3] 0
h[(1,_2,_3),14,3] 0
z[(1,_2,_3),14] 0
y[(1,_3,_2),14,1] -1
g[(1,_3,_2),14,1] 1
h[(1,_3,_2),14,1] 0
y[(1,_3,_2),14,2] -3
g[(1,_3,_2),14,2] 1
h[(1,_3,_2),14,2] 0
y[(1,_3,_2),14,3] 1
g[(1,_3,_2),14,3] 1
h[(1,_3,_2),14,3] 1
z[(1,_3,_2),14] 0
y[(2,_1,_3),14,1] -2
g[(2,_1,_3),14,1] 1
h[(2,_1,_3),14,1] 0
y[(2,_1,_3),14,2] -1
g[(2,_1,_3),14,2] 1
h[(2,_1,_3),14,2] 0
y[(2,_1,_3),14,3] 0
g[(2,_1,_3),14,3] 0
h[(2,_1,_3),14,3] 0
z[(2,_1,_3),14] 0
y[(2,_3,_1),14,1] -2
g[(2,_3,_1),14,1] 1
h[(2,_3,_1),14,1] 0
y[(2,_3,_1),14,2] -3
g[(2,_3,_1),14,2] 1
h[(2,_3,_1),14,2] 0
y[(2,_3,_1),14,3] 2
g[(2,_3,_1),14,3] 1
h[(2,_3,_1),14,3] 1
z[(2,_3,_1),14] 0
y[(3,_1,_2),14,1] -3
g[(3,_1,_2),14,1] 1
h[(3,_1,_2),14,1] 0
y[(3,_1,_2),14,2] -1
g[(3,_1,_2),14,2] 1
h[(3,_1,_2),14,2] 0
y[(3,_1,_2),14,3] 1
g[(3,_1,_2),14,3] 1
h[(3,_1,_2),14,3] 1
z[(3,_1,_2),14] 0
y[(3,_2,_1),14,1] -3
g[(3,_2,_1),14,1] 1
h[(3,_2,_1),14,1] 0
y[(3,_2,_1),14,2] -2
g[(3,_2,_1),14,2] 1
h[(3,_2,_1),14,2] 0
y[(3,_2,_1),14,3] 2
g[(3,_2,_1),14,3] 1
h[(3,_2,_1),14,3] 1
z[(3,_2,_1),14] 0
y[(1,_2,_3),15,1] -1
g[(1,_2,_3),15,1] 1
h[(1,_2,_3),15,1] 0
y[(1,_2,_3),15,2] 1
g[(1,_2,_3),15,2] 1
h[(1,_2,_3),15,2] 1
y[(1,_2,_3),15,3] -1
g[(1,_2,_3),15,3] 1
h[(1,_2,_3),15,3] 0
z[(1,_2,_3),15] 0
y[(1,_3,_2),15,1] -1
g[(1,_3,_2),15,1] 1
h[(1,_3,_2),15,1] 0
y[(1,_3,_2),15,2] 0
g[(1,_3,_2),15,2] 0
h[(1,_3,_2),15,2] 0
y[(1,_3,_2),15,3] 0
g[(1,_3,_2),15,3] 0
h[(1,_3,_2),15,3] 0
z[(1,_3,_2),15] 0
y[(2,_1,_3),15,1] -2
g[(2,_1,_3),15,1] 1
h[(2,_1,_3),15,1] 0
y[(2,_1,_3),15,2] 2
g[(2,_1,_3),15,2] 1
h[(2,_1,_3),15,2] 1
y[(2,_1,_3),15,3] -1
g[(2,_1,_3),15,3] 1
h[(2,_1,_3),15,3] 0
z[(2,_1,_3),15] 0
y[(2,_3,_1),15,1] -2
g[(2,_3,_1),15,1] 1
h[(2,_3,_1),15,1] 0
y[(2,_3,_1),15,2] 0
g[(2,_3,_1),15,2] 0
h[(2,_3,_1),15,2] 0
y[(2,_3,_1),15,3] 1
g[(2,_3,_1),15,3] 1
h[(2,_3,_1),15,3] 1
z[(2,_3,_1),15] 0
y[(3,_1,_2),15,1] -3
g[(3,_1,_2),15,1] 1
h[(3,_1,_2),15,1] 0
y[(3,_1,_2),15,2] 2
g[(3,_1,_2),15,2] 1
h[(3,_1,_2),15,2] 1
y[(3,_1,_2),15,3] 0
g[(3,_1,_2),15,3] 0
h[(3,_1,_2),15,3] 0
z[(3,_1,_2),15] 0
y[(3,_2,_1),15,1] -3
g[(3,_2,_1),15,1] 1
h[(3,_2,_1),15,1] 0
y[(3,_2,_1),15,2] 1
g[(3,_2,_1),15,2] 1
h[(3,_2,_1),15,2] 1
y[(3,_2,_1),15,3] 1
g[(3,_2,_1),15,3] 1
h[(3,_2,_1),15,3] 1
z[(3,_2,_1),15] 0
y[(1,_2,_3),16,1] 2
g[(1,_2,_3),16,1] 1
h[(1,_2,_3),16,1] 1
y[(1,_2,_3),16,2] 0
g[(1,_2,_3),16,2] 0
h[(1,_2,_3),16,2] 0
y[(1,_2,_3),16,3] -2
g[(1,_2,_3),16,3] 1
h[(1,_2,_3),16,3] 0
z[(1,_2,_3),16] 0
y[(1,_3,_2),16,1] 2
g[(1,_3,_2),16,1] 1
h[(1,_3,_2),16,1] 1
y[(1,_3,_2),16,2] -1
g[(1,_3,_2),16,2] 1
h[(1,_3,_2),16,2] 0
y[(1,_3,_2),16,3] -1
g[(1,_3,_2),16,3] 1
h[(1,_3,_2),16,3] 0
z[(1,_3,_2),16] 0
y[(2,_1,_3),16,1] 1
g[(2,_1,_3),16,1] 1
h[(2,_1,_3),16,1] 1
y[(2,_1,_3),16,2] 1
g[(2,_1,_3),16,2] 1
h[(2,_1,_3),16,2] 1
y[(2,_1,_3),16,3] -2
g[(2,_1,_3),16,3] 1
h[(2,_1,_3),16,3] 0
z[(2,_1,_3),16] 0
y[(2,_3,_1),16,1] 1
g[(2,_3,_1),16,1] 1
h[(2,_3,_1),16,1] 1
y[(2,_3,_1),16,2] -1
g[(2,_3,_1),16,2] 1
h[(2,_3,_1),16,2] 0
y[(2,_3,_1),16,3] 0
g[(2,_3,_1),16,3] 0
h[(2,_3,_1),16,3] 0
z[(2,_3,_1),16] 0
y[(3,_1,_2),16,1] 0
g[(3,_1,_2),16,1] 0
h[(3,_1,_2),16,1] 0
y[(3,_1,_2),16,2] 1
g[(3,_1,_2),16,2] 1
h[(3,_1,_2),16,2] 1
y[(3,_1,_2),16,3] -1
g[(3,_1,_2),16,3] 1
h[(3,_1,_2),16,3] 0
z[(3,_1,_2),16] 0
y[(3,_2,_1),16,1] 0
g[(3,_2,_1),16,1] 0
h[(3,_2,_1),16,1] 0
y[(3,_2,_1),16,2] 0
g[(3,_2,_1),16,2] 0
h[(3,_2,_1),16,2] 0
y[(3,_2,_1),16,3] 0
g[(3,_2,_1),16,3] 0
h[(3,_2,_1),16,3] 0
z[(3,_2,_1),16] 1
